129
0 106 38 69 98 118 11 62 64 18 
107 73 93 27 59 42 47 1 114 65 
21 74 17 100 26 103 72 5 113 41 
67 91 3 109 105 8 32 80 83 2 
115 16 66 82 125 94 71 45 70 68 
101 116 53 76 55 127 9 33 51 89 
92 12 85 110 14 34 87 78 111 36 
30 63 48 104 20 122 128 46 90 37 
44 58 60 108 112 23 88 31 77 52 
81 39 6 15 57 13 61 50 84 22 
4 121 95 49 123 19 96 7 54 40 
120 29 28 56 24 25 102 117 75 35 
10 124 86 43 99 79 119 97 126 
